63
13
0 17 21 22 23 25 26 27 28 29 30 31 32 38 39 45 46 47 51 52 53 58 60 61 62
1 13 17 19 22 24 25 26 28 29 30 32 33 35 36 38 39 40 43 45 46 47 48 52 53 57 58 59 61 62
2 13 18 19 22 24 25 26 27 28 29 30 35 36 37 38 43 44 45 46 48 49 50 51 52 55 57 59 60 61 62
3 13 20 22 24 25 26 27 28 29 31 32 33 36 38 39 40 42 45 46 47 49 51 53 54 56 57 58 59 60 61 62
4 13 18 22 24 26 27 28 31 32 33 36 38 43 44 45 46 47 48 49 50 52 54 55 58 60 61
5 14 17 18 19 27 29 30 31 33 34 36 37 38 39 40 43 44 45 47 48 49 53 56 58 59 61 62
6 13 17 19 22 28 29 31 32 33 38 39 40 41 43 45 46 48 51 55 56 57 58 61
7 13 15 17 18 19 23 25 31 33 39 43 47 49 53 54 59 60 61
8 15 16 18 21 24 26 30 37 38 39 44 45 50 51 58 60 61
9 18 30 31 33 47 49 50 54 56 57
10 15 16 23 25 28 34 35 46 49 53 59
11 18 22 26 35 48 62
12 16
